************************************************************************
file with basedata            : md365_.bas
initial value random generator: 367308831
************************************************************************
projects                      :  1
jobs (incl. supersource/sink ):  22
horizon                       :  136
RESOURCES
  - renewable                 :  2   R
  - nonrenewable              :  2   N
  - doubly constrained        :  0   D
************************************************************************
PROJECT INFORMATION:
pronr.  #jobs rel.date duedate tardcost  MPM-Time
    1     20      0       29       11       29
************************************************************************
PRECEDENCE RELATIONS:
jobnr.    #modes  #successors   successors
   1        1          3           2   3   4
   2        3          3           5   7   8
   3        3          1          10
   4        3          3           6  13  17
   5        3          3          11  13  15
   6        3          3           9  11  14
   7        3          3          12  16  17
   8        3          2           9  15
   9        3          3          10  16  18
  10        3          1          20
  11        3          2          18  21
  12        3          2          19  20
  13        3          2          14  19
  14        3          1          16
  15        3          2          17  18
  16        3          1          21
  17        3          1          20
  18        3          1          19
  19        3          1          22
  20        3          1          22
  21        3          1          22
  22        1          0        
************************************************************************
REQUESTS/DURATIONS:
jobnr. mode duration  R 1  R 2  N 1  N 2
------------------------------------------------------------------------
  1      1     0       0    0    0    0
  2      1     6       9    9    1    8
         2     8       7    8    1    7
         3    10       7    8    1    6
  3      1     5       6    5    6   10
         2     6       6    4    6   10
         3     9       6    4    6    9
  4      1     7       8   10    4    5
         2     8       7   10    4    5
         3     8       8   10    3    4
  5      1     2       8    3    6    8
         2     2       9    4    9    7
         3     3       7    2    2    5
  6      1     2       6    4    7    7
         2     4       4    3    4    4
         3     4       4    2    6    6
  7      1     5       5    5    4    6
         2     6       4    4    3    5
         3     7       2    2    3    4
  8      1     1       7    7    4    8
         2     3       4    6    4    8
         3    10       4    4    3    8
  9      1     4       9    4    6    6
         2     9       6    2    6    5
         3     9       4    3    6    4
 10      1     1       8    3    8    3
         2     1       7    3    9    3
         3     3       5    3    2    3
 11      1     1      10    6    4    9
         2     1      10    7    5    7
         3     7       9    1    4    5
 12      1     1       7    7    5    3
         2     2       5    7    4    3
         3     3       4    7    3    2
 13      1     2       4    8    9    2
         2     2       4    6   10    2
         3     3       2    5    8    2
 14      1     2       2    4    7    5
         2     3       2    4    5    4
         3     3       1    4    7    5
 15      1     4       5    4    9    4
         2     7       4    3    7    3
         3     9       4    2    2    3
 16      1     7       3    7    7    7
         2     8       1    4    6    7
         3     8       2    3    4    7
 17      1     6       5    6    7    7
         2     7       3    5    4    6
         3     8       2    5    1    6
 18      1     2       7    3    7    4
         2     4       5    2    4    3
         3     4       4    3    6    2
 19      1     1       6    6    6    4
         2     6       4    6    3    4
         3     9       3    6    2    4
 20      1     6       6    7    5    1
         2     7       6    6    3    1
         3     9       5    1    3    1
 21      1     9       7    4    6    5
         2     9       6    5    6    5
         3    10       4    1    3    5
 22      1     0       0    0    0    0
************************************************************************
RESOURCEAVAILABILITIES:
  R 1  R 2  N 1  N 2
   15   15   97  100
************************************************************************
MAXIMAL LAGS:
from  to  type  delay
    1   12   ES      0
    1    2   ES      0
    2   12   ES      0
    1    3   ES      0
    3   12   ES      0
    1    4   ES      0
    4   12   ES      0
    1    5   ES      0
    5   12   ES      0
    1    6   ES      0
    6   12   ES      0
    1    7   ES      0
    7   12   ES      0
    1    8   ES      0
    8   12   ES      0
    1    9   ES      0
    9   12   ES      0
    1   10   ES      0
   10   12   ES      0
    1   11   ES      0
   11   12   ES      0
    1   12   ES      0
    2    5   SS    -12
    2    5   SE     -2
    2    5   ES      1
    2    5   EE     -1
    2    7   SS      8
    2    7   SE     -9
    2    7   ES     -5
    2    7   EE     -5
    2    8   SS     -2
    2    8   SE      5
    2    8   ES     -2
    2    8   EE    -11
    3   10   SS      5
    3   10   SE    -10
    3   10   ES      8
    3   10   EE     -4
    4    6   SS     -6
    4    6   SE     -7
    4    6   ES     -7
    4    6   EE     10
    4   13   SS      6
    4   13   SE      4
    4   13   ES      3
    4   13   EE      1
    4   17   SS      1
    4   17   SE     10
    4   17   ES     -6
    4   17   EE     -7
    5   11   SS      3
    5   11   SE      9
    5   11   ES      6
    5   11   EE     10
    5   13   SS     10
    5   13   SE    -11
    5   13   ES     12
    5   13   EE     -4
    5   15   SS     -8
    5   15   SE     -6
    5   15   ES     -6
    5   15   EE      5
    6    9   SS     -9
    6    9   SE    -12
    9    6   SE      0
    6    9   ES      0
    6    9   EE    -11
    6   11   SS     11
    6   11   SE      4
    6   11   ES      7
    6   11   EE    -10
    6   14   SS     11
    6   14   SE      3
    6   14   ES    -11
    6   14   EE    -11
    7   16   SS     -1
    7   16   SE     -8
    7   16   ES     -8
    7   16   EE      7
    7   17   SS    -10
    7   17   SE      4
    7   17   ES     -4
    7   17   EE     -1
    8    9   SS      2
    8    9   SE      8
    8    9   ES     12
    8    9   EE     -3
    8   15   SS      6
    8   15   SE     12
    8   15   ES      1
    8   15   EE     -1
    9   10   SS      7
    9   10   SE      7
    9   10   ES    -12
    9   10   EE     -2
    9   16   SS     -8
    9   16   SE      3
    9   16   ES    -12
    9   16   EE     10
    9   18   SS     -7
    9   18   SE     -1
    9   18   ES      7
    9   18   EE      7
   10   20   SS      1
   10   20   SE     -9
   10   20   ES     -9
   10   20   EE     -3
   11   18   SS     -6
   11   18   SE     -2
   11   18   ES      4
   11   18   EE     -6
   11   21   SS    -11
   11   21   SE     -3
   11   21   ES    -12
   11   21   EE      8
   12   19   SS      3
   12   19   SE      3
   12   19   ES     11
   12   19   EE     11
   12   20   SS     11
   12   20   SE     -1
   12   20   ES     -9
   12   20   EE     -5
   13   14   SS    -11
   13   14   SE      1
   13   14   ES    -10
   13   14   EE    -12
   13   19   SS      7
   13   19   SE     12
   13   19   ES     -8
   13   19   EE     -8
   14   16   SS     -9
   14   16   SE      0
   14   16   ES      5
   14   16   EE      6
   15   17   SS      2
   15   17   SE     -3
   15   17   ES     -2
   15   17   EE     -6
   15   18   SS      2
   15   18   SE     -9
   15   18   ES     -3
   15   18   EE      2
   16   21   SS     -5
   16   21   SE     -8
   16   21   ES    -11
   16   21   EE     -3
   17   20   SS     -5
   17   20   SE    -10
   17   20   ES      7
   17   20   EE     -8
   18   19   SS      2
   18   19   SE     -3
   18   19   ES     -5
   18   19   EE    -10
   19   22   SS     -7
   19   22   SE      1
   19   22   ES      1
   19   22   EE      1
   20   22   SS     -1
   20   22   SE      0
   20   22   ES    -11
   20   22   EE     -7
   21   22   SS     -5
   21   22   SE     -6
   21   22   ES      0
   21   22   EE    -10
************************************************************************
